experiment/data/lkh-res/Vrp-Set-X-n513/Vrp-Set-X-n513-lkh/0.lkh1.vrp
NAME : 0
COMMENT : CVRP Instance
TYPE : CVRP
DIMENSION : 513
EDGE_WEIGHT_TYPE : EUC_2D
CAPACITY : 142
NODE_COORD_SECTION
1	50000	50000
2	42500	32300
3	80600	51400
4	85300	63700
5	32600	81800
6	60100	66400
7	68000	70400
8	35800	40100
9	68800	26700
10	14600	84600
11	17100	61500
12	96200	7500
13	71000	56500
14	66200	57400
15	66500	59900
16	11200	81100
17	43900	6900
18	57300	6900
19	99700	64700
20	33800	52400
21	62600	2900
22	63300	57000
23	95700	89000
24	74600	39700
25	22400	8300
26	42500	82700
27	78700	9900
28	51800	37800
29	89000	76300
30	86000	60800
31	68300	18800
32	41700	68000
33	48300	98700
34	67600	19700
35	29400	71000
36	28400	28100
37	56800	56500
38	94200	89600
39	22300	35800
40	53800	42800
41	91000	70200
42	55000	51600
43	52400	46700
44	67500	12800
45	97700	48800
46	72500	89000
47	20500	51200
48	76800	66000
49	44300	40700
50	51800	36300
51	73000	60900
52	97300	6400
53	68300	83200
54	30800	29800
55	51000	1400
56	1700	64700
57	27500	52700
58	30300	57100
59	41500	62400
60	71300	48300
61	50200	14700
62	3800	7600
63	26500	47700
64	44600	90900
65	84900	73800
66	87800	22200
67	33400	25000
68	68300	2800
69	50200	23500
70	51300	43300
71	85000	76400
72	46500	21300
73	85400	96600
74	46500	64800
75	49100	47700
76	91600	59700
77	99900	14600
78	58100	82400
79	89200	98900
80	73400	58100
81	23200	38600
82	53800	43100
83	13900	54100
84	69700	33100
85	55700	18100
86	33900	95700
87	27100	51400
88	16200	28100
89	17500	42400
90	81900	40300
91	78300	93100
92	56200	62700
93	99500	89200
94	13500	78900
95	11700	95400
96	91100	83400
97	12500	75700
98	27900	64600
99	17500	38600
100	29600	12800
101	37900	7800
102	56700	52600
103	80900	17100
104	38900	700
105	77200	30800
106	14300	49200
107	32200	89400
108	93500	73000
109	2400	79100
110	48200	62600
111	97400	27800
112	25800	82300
113	5800	25600
114	88400	52300
115	47500	69200
116	76300	57600
117	49800	33000
118	97800	79700
119	49100	64000
120	42800	54800
121	17400	2500
122	22200	57200
123	13900	27000
124	31400	6100
125	61800	24700
126	40200	99400
127	49100	87000
128	5800	70400
129	56300	29100
130	13100	72000
131	6900	36600
132	37600	83100
133	44800	34300
134	35200	42400
135	35100	82900
136	56000	6000
137	91400	98100
138	83500	29800
139	26700	96800
140	98300	77800
141	30500	67000
142	67700	54600
143	70100	63200
144	59300	63500
145	17000	26800
146	80500	89100
147	98900	31300
148	41900	4800
149	75800	52600
150	47200	6600
151	41900	64200
152	6600	69900
153	52200	58100
154	76300	32700
155	73600	89200
156	22000	3500
157	62000	46300
158	8700	94200
159	63500	47300
160	14100	77200
161	41100	59300
162	68400	69200
163	26400	44000
164	17100	38500
165	95900	28200
166	11800	37900
167	72700	98800
168	22800	62200
169	52900	23100
170	78900	31600
171	57700	94900
172	30800	99200
173	9100	3300
174	41500	83500
175	32300	29900
176	98700	26900
177	81800	67200
178	55000	78200
179	92900	65400
180	91700	99900
181	58400	1900
182	7300	1700
183	30500	77100
184	32700	98500
185	46800	34000
186	69200	92100
187	82200	4400
188	52900	80100
189	25200	78900
190	44100	88300
191	79900	1500
192	40900	28500
193	92100	91200
194	18500	81500
195	1100	86000
196	93400	4200
197	16200	14300
198	11600	63900
199	18500	89800
200	64400	94300
201	86900	31200
202	25400	79600
203	50100	8600
204	16300	62000
205	63300	13300
206	94800	74200
207	9200	52900
208	69100	97600
209	25200	71800
210	37100	44700
211	54500	96500
212	50400	67600
213	22700	6000
214	3000	89900
215	39800	27400
216	46000	65300
217	26200	55400
218	25800	60000
219	64600	98100
220	49100	60500
221	76400	47500
222	71500	6700
223	23400	74600
224	11100	49500
225	34200	49600
226	88800	33600
227	56000	87400
228	91100	5200
229	30900	17700
230	59600	45400
231	97700	80800
232	5600	27200
233	18100	47100
234	48400	98800
235	28900	63300
236	79600	91300
237	17800	21900
238	52400	51600
239	25500	57300
240	95400	100
241	72200	65400
242	51800	13700
243	8800	49500
244	43300	33000
245	93900	90100
246	59500	96100
247	95100	40400
248	71500	95600
249	15600	47100
250	71300	61600
251	46000	94900
252	35700	70000
253	40600	77200
254	15600	74500
255	18900	91600
256	49800	65200
257	92400	59800
258	4000	50700
259	16000	73300
260	35300	66500
261	64800	63500
262	60900	66200
263	4400	59100
264	18900	62200
265	75800	63400
266	48400	68200
267	64700	64200
268	48800	61800
269	73900	64500
270	50200	60100
271	7900	46300
272	10600	70900
273	63100	57700
274	26600	65300
275	6800	54900
276	78200	59600
277	32800	75200
278	21600	76400
279	22800	33400
280	3900	49400
281	43200	51900
282	1700	63600
283	36500	66900
284	28400	65600
285	51500	66100
286	13100	87200
287	5800	38800
288	61000	62600
289	29700	53100
290	72800	70000
291	11800	49600
292	75300	51000
293	59100	64800
294	1000	51300
295	26300	86100
296	11600	72700
297	22800	73200
298	18300	73300
299	7900	53600
300	21900	71700
301	18400	72700
302	16400	68400
303	12100	72200
304	31100	62500
305	11000	71200
306	20400	72400
307	17900	79000
308	24200	72800
309	70000	60200
310	1200	44000
311	9200	66400
312	68700	60800
313	57600	52000
314	61900	66800
315	200	77000
316	68900	61400
317	27300	79500
318	67000	62200
319	35100	70300
320	3700	88400
321	43900	75200
322	31000	57600
323	7300	45700
324	24200	83900
325	56500	62900
326	96100	75400
327	54800	60800
328	34000	69400
329	38700	64300
330	65500	63700
331	73500	49900
332	50600	67500
333	1800	45700
334	12700	53000
335	30600	59700
336	26700	71200
337	71900	49000
338	21800	61500
339	29700	57500
340	15400	75900
341	18600	51600
342	61000	65900
343	42100	63000
344	57200	52000
345	5700	67200
346	8800	72800
347	1300	51200
348	57300	66400
349	11200	76100
350	58900	73700
351	35900	66300
352	73200	50100
353	11800	87100
354	16800	77700
355	34900	60600
356	34300	63200
357	76400	91200
358	33000	60600
359	38300	71700
360	24200	66500
361	33000	66100
362	35900	63400
363	27000	68200
364	13100	74400
365	23500	55700
366	15400	67300
367	41000	62200
368	3400	59300
369	78900	71200
370	60100	80300
371	55700	73100
372	4600	78400
373	10900	48000
374	33300	75500
375	35300	64200
376	41100	76800
377	34700	60100
378	17500	56100
379	60600	45100
380	34800	65800
381	18800	79600
382	45300	85500
383	60000	67500
384	31300	59700
385	80200	56900
386	39000	73700
387	45500	57000
388	67600	64200
389	61700	79500
390	23800	74800
391	51900	69000
392	64000	63300
393	2900	43500
394	57900	36100
395	61400	54700
396	27000	62700
397	69500	61700
398	13600	44600
399	17900	76900
400	18200	71800
401	11800	44900
402	65000	52000
403	15400	41200
404	18500	77600
405	66500	64200
406	1100	51300
407	33500	64200
408	37800	69700
409	4900	56400
410	36500	80500
411	30800	73000
412	64000	77600
413	16900	72000
414	22600	74400
415	64300	61600
416	58200	52200
417	67800	54500
418	56500	56500
419	41100	44900
420	77400	55700
421	46700	62500
422	24000	55200
423	51300	63500
424	64300	62700
425	3100	49900
426	47600	55600
427	9200	56200
428	69900	60600
429	72300	56500
430	67600	38200
431	10400	33700
432	18100	84600
433	33200	76100
434	65600	65900
435	12300	80600
436	37200	72700
437	62200	73700
438	88600	66800
439	13000	80400
440	42900	69600
441	33700	80900
442	14500	71700
443	16100	64200
444	7600	78700
445	30200	65000
446	45800	72500
447	23300	52900
448	57400	74200
449	65900	59300
450	77700	56500
451	37600	75100
452	17000	89500
453	2700	51300
454	17600	75100
455	14900	56600
456	27900	67300
457	26900	70000
458	42700	71000
459	42800	66100
460	9400	48300
461	67400	70000
462	1800	39800
463	65600	62800
464	4900	48800
465	66500	70600
466	6200	51900
467	52200	63800
468	22800	76200
469	23100	52700
470	14600	81100
471	16100	28600
472	65100	63600
473	66200	66800
474	36600	74500
475	17300	70800
476	74800	58800
477	17100	61000
478	19100	68600
479	7900	43200
480	32100	70800
481	61400	61400
482	33900	65500
483	50200	56100
484	26600	64700
485	13000	68000
486	68700	56700
487	1100	50400
488	52300	68800
489	10200	61400
490	73000	59800
491	30300	68300
492	48400	71200
493	10100	74700
494	22500	68200
495	3100	62300
496	37100	64000
497	8000	40100
498	64200	71800
499	78000	64800
500	14900	44800
501	3700	58000
502	37400	69600
503	21200	48900
504	11900	67500
505	77700	60900
506	66800	62800
507	52700	56200
508	64900	76000
509	9400	66300
510	8500	72100
511	43700	70800
512	4600	68900
513	37500	65900
DEMAND_SECTION
1	0
2	8
3	2
4	10
5	7
6	10
7	7
8	7
9	2
10	9
11	9
12	1
13	3
14	9
15	4
16	10
17	3
18	4
19	2
20	8
21	2
22	9
23	2
24	8
25	8
26	5
27	8
28	4
29	5
30	9
31	8
32	5
33	2
34	10
35	1
36	3
37	9
38	3
39	8
40	4
41	2
42	6
43	8
44	9
45	4
46	1
47	6
48	2
49	1
50	10
51	3
52	4
53	2
54	7
55	3
56	6
57	1
58	5
59	4
60	1
61	7
62	4
63	9
64	7
65	5
66	4
67	6
68	10
69	1
70	6
71	1
72	8
73	3
74	5
75	5
76	6
77	1
78	9
79	1
80	2
81	5
82	10
83	7
84	6
85	5
86	10
87	4
88	6
89	10
90	3
91	10
92	4
93	10
94	3
95	8
96	9
97	3
98	2
99	8
100	7
101	7
102	8
103	2
104	9
105	4
106	9
107	1
108	6
109	8
110	1
111	8
112	2
113	5
114	6
115	4
116	10
117	4
118	4
119	2
120	9
121	2
122	2
123	5
124	9
125	1
126	5
127	2
128	9
129	7
130	8
131	10
132	8
133	3
134	5
135	8
136	9
137	3
138	9
139	9
140	7
141	9
142	5
143	3
144	1
145	9
146	1
147	6
148	2
149	5
150	8
151	3
152	5
153	7
154	5
155	2
156	1
157	2
158	7
159	7
160	9
161	4
162	5
163	3
164	9
165	2
166	6
167	5
168	7
169	9
170	10
171	9
172	2
173	7
174	8
175	2
176	9
177	7
178	8
179	5
180	6
181	10
182	10
183	3
184	5
185	4
186	4
187	3
188	6
189	8
190	8
191	9
192	9
193	4
194	5
195	9
196	5
197	7
198	8
199	10
200	3
201	2
202	3
203	3
204	8
205	6
206	8
207	2
208	8
209	7
210	9
211	3
212	8
213	4
214	8
215	10
216	9
217	3
218	3
219	8
220	8
221	3
222	4
223	6
224	8
225	7
226	2
227	8
228	1
229	4
230	10
231	10
232	9
233	10
234	2
235	2
236	9
237	2
238	4
239	9
240	6
241	9
242	9
243	9
244	3
245	2
246	8
247	10
248	6
249	1
250	3
251	10
252	4
253	1
254	5
255	3
256	9
257	1
258	7
259	3
260	3
261	6
262	9
263	1
264	4
265	3
266	9
267	9
268	1
269	8
270	2
271	10
272	6
273	2
274	8
275	8
276	6
277	6
278	10
279	9
280	8
281	9
282	8
283	10
284	9
285	5
286	8
287	7
288	10
289	5
290	4
291	5
292	7
293	7
294	3
295	10
296	8
297	10
298	8
299	5
300	9
301	7
302	10
303	2
304	6
305	4
306	1
307	9
308	3
309	2
310	10
311	3
312	5
313	5
314	1
315	9
316	7
317	1
318	10
319	6
320	2
321	8
322	6
323	6
324	7
325	1
326	9
327	2
328	3
329	10
330	1
331	1
332	9
333	5
334	8
335	1
336	8
337	5
338	10
339	5
340	10
341	3
342	8
343	1
344	7
345	8
346	4
347	10
348	5
349	1
350	9
351	4
352	5
353	9
354	5
355	7
356	8
357	2
358	6
359	6
360	7
361	2
362	10
363	9
364	6
365	4
366	1
367	4
368	1
369	5
370	7
371	6
372	10
373	4
374	9
375	7
376	4
377	8
378	1
379	3
380	7
381	1
382	4
383	10
384	1
385	8
386	5
387	10
388	7
389	5
390	2
391	6
392	2
393	4
394	9
395	10
396	4
397	10
398	9
399	6
400	6
401	1
402	7
403	6
404	1
405	7
406	3
407	9
408	7
409	3
410	3
411	1
412	8
413	4
414	1
415	9
416	8
417	4
418	7
419	6
420	8
421	3
422	4
423	1
424	8
425	7
426	1
427	7
428	10
429	6
430	8
431	6
432	3
433	3
434	10
435	4
436	6
437	9
438	7
439	3
440	6
441	3
442	5
443	4
444	5
445	4
446	10
447	8
448	7
449	5
450	5
451	7
452	6
453	1
454	10
455	6
456	5
457	9
458	8
459	10
460	9
461	6
462	8
463	9
464	2
465	10
466	1
467	4
468	2
469	1
470	9
471	6
472	1
473	6
474	8
475	4
476	2
477	5
478	7
479	4
480	9
481	10
482	2
483	5
484	8
485	3
486	7
487	8
488	3
489	8
490	3
491	1
492	6
493	5
494	5
495	1
496	4
497	1
498	3
499	5
500	3
501	10
502	7
503	4
504	3
505	2
506	6
507	4
508	5
509	2
510	10
511	3
512	5
513	10
DEPOT_SECTION
1
-1
EOF
