experiment/data/lkh-res/Vrp-Set-X-n513/Vrp-Set-X-n513-lkh/0.lkh1.tour
NAME : 0.2473047.tour
COMMENT : Length = 2473047
COMMENT : Found by LKH-3 [Keld Helsgaun] Tue Apr  9 09:33:49 2024
TYPE : TOUR
DIMENSION : 533
TOUR_SECTION
1
81
99
164
166
287
462
393
310
333
464
280
425
487
294
406
347
453
258
466
299
207
341
47
469
447
87
526
35
381
194
432
10
353
286
452
199
255
95
158
214
320
195
315
109
372
444
16
435
354
404
491
523
358
304
235
484
274
478
302
366
485
504
509
311
489
198
443
204
11
477
264
338
168
218
339
58
322
515
43
82
40
28
50
394
129
125
34
31
9
84
105
170
154
24
430
159
157
379
230
520
142
417
486
13
429
80
476
116
420
450
385
276
505
499
48
265
269
241
290
162
7
461
465
314
293
144
507
518
407
445
284
300
306
301
298
454
399
307
470
439
94
160
340
254
259
413
400
494
360
396
335
384
521
281
20
289
217
239
422
365
122
378
455
83
334
243
460
373
224
291
106
249
233
503
63
225
530
177
4
30
76
257
19
179
438
41
108
206
326
140
118
231
93
23
38
245
193
96
29
71
65
369
143
522
102
14
449
15
312
428
309
490
51
250
397
316
318
506
388
405
330
463
424
415
37
418
531
402
352
331
292
149
3
114
45
247
147
165
111
176
77
12
52
240
196
228
187
191
27
103
66
138
201
226
90
221
337
60
514
238
392
261
472
267
434
473
498
437
508
412
389
370
78
178
448
371
488
391
212
332
285
467
270
532
423
188
227
127
64
251
33
234
211
171
246
219
200
186
248
208
167
73
79
180
137
146
236
91
357
155
46
53
350
533
75
49
133
244
2
192
215
67
229
100
124
25
213
156
121
173
182
62
197
237
36
54
175
8
419
525
161
496
482
361
141
456
363
457
336
209
308
297
414
278
468
223
390
183
433
374
277
319
252
502
408
151
343
519
70
117
69
169
85
205
44
222
68
21
181
18
136
55
104
101
148
17
150
203
242
61
72
185
516
42
344
313
416
395
22
273
481
288
342
262
6
383
348
325
92
327
153
528
57
427
275
409
501
263
368
495
282
56
345
512
128
152
510
346
493
349
97
364
296
272
305
303
130
442
475
98
524
421
74
216
459
440
511
458
359
436
474
451
253
376
321
446
492
115
266
256
119
110
268
220
483
517
426
32
386
410
441
5
135
132
174
26
382
190
126
86
184
172
139
107
295
324
112
202
189
317
411
480
328
527
387
59
367
329
513
283
351
260
380
375
362
356
355
377
120
529
210
134
39
279
471
88
145
123
113
232
431
131
497
479
323
271
401
398
500
403
89
163
-1
EOF
